Minimize
  - 40 y_0 - 54 y_1 - 40 y_2 - 11 y_3 - 14 y_4 - 42 y_5 - 20 y_6 - 39 y_7
   - 36 y_8 - 26 y_9 - 20 y_10 - 56 y_11 - 38 y_12 - 42 y_14 - 33 y_15
   - 48 y_16 - 47 y_17 - 33 y_18 - 26 y_19 - 22 y_20 - 37 y_21 - 52 y_22
   - 34 y_23 - 41 y_24 - 69 y_25 - 25 y_26 - 25 y_27 - 49 y_28 - 22 y_29
   - 17 y_30 - 47 y_31 - 56 y_32 - 50 y_33 - 5 y_34 - 32 y_35 - 61 y_36
   - 48 y_37 - 26 y_38 - 35 y_39 - 66 y_40 - 55 y_41 - 43 y_42 - 31 y_43
   - 51 y_44 - 40 y_45 - 41 y_46 - 53 y_47 - 53 y_48 - 44 y_49
   + 1895 Constant
Subject To
 c_0: y_3 = 1
 c_1_0: y_0 + y_7 >= 1
 c_1_1: y_1 + y_32 >= 1
 c_1_2: y_2 >= 1
 c_1_3: y_3 >= 1
 c_1_4: y_4 >= 1
 c_1_5: y_5 >= 1
 c_1_6: y_6 >= 1
 c_1_7: y_0 + y_7 >= 1
 c_1_8: y_8 >= 1
 c_1_9: y_9 >= 1
 c_1_10: y_10 >= 1
 c_1_11: y_11 >= 1
 c_1_12: y_12 >= 1
 c_1_13: y_13 >= 1
 c_1_14: y_14 >= 1
 c_1_15: y_15 + y_23 >= 1
 c_1_16: y_16 >= 1
 c_1_17: y_17 + y_31 >= 1
 c_1_18: y_18 >= 1
 c_1_19: y_19 >= 1
 c_1_20: y_20 >= 1
 c_1_21: y_21 >= 1
 c_1_22: y_22 >= 1
 c_1_23: y_15 + y_23 >= 1
 c_1_24: y_24 >= 1
 c_1_25: y_25 >= 1
 c_1_26: y_26 >= 1
 c_1_27: y_27 >= 1
 c_1_28: y_28 >= 1
 c_1_29: y_29 >= 1
 c_1_30: y_30 >= 1
 c_1_31: y_17 + y_31 >= 1
 c_1_32: y_1 + y_32 >= 1
 c_1_33: y_33 >= 1
 c_1_34: y_34 >= 1
 c_1_35: y_35 >= 1
 c_1_36: y_36 >= 1
 c_1_37: y_37 >= 1
 c_1_38: y_38 >= 1
 c_1_39: y_39 >= 1
 c_1_40: y_40 >= 1
 c_1_41: y_41 >= 1
 c_1_42: y_42 >= 1
 c_1_43: y_43 >= 1
 c_1_44: y_44 >= 1
 c_1_45: y_45 >= 1
 c_1_46: y_46 >= 1
 c_1_47: y_47 >= 1
 c_1_48: y_48 >= 1
 c_1_49: y_49 >= 1
Bounds
 Constant = 1
Binaries
 y_0 y_1 y_2 y_3 y_4 y_5 y_6 y_7 y_8 y_9 y_10 y_11 y_12 y_13 y_14 y_15 y_16
 y_17 y_18 y_19 y_20 y_21 y_22 y_23 y_24 y_25 y_26 y_27 y_28 y_29 y_30 y_31
 y_32 y_33 y_34 y_35 y_36 y_37 y_38 y_39 y_40 y_41 y_42 y_43 y_44 y_45 y_46
 y_47 y_48 y_49
End
